num_samples = 44;
num_vars = 22;
max_errors = 5;
sample_outputs = [false, false, false, false, true, true, false, true, true,
    false, false, false, true, true, false, false, false, false, false, true,
    false, false, true, true, true, false, false, false, true, false, true,
    false, true, true, false, true, true, false, false, false, false, false,
    false, false];
sample_inputs = array2d(1..44, 1..22, [true, false, false, true, true, false,
    false, true, true, false, false, false, true, true, false, true, true,
    false, true, false, true, false, false, false, false, false, false, false,
    true, false, false, false, false, true, true, true, true, true, true,
    true, true, false, false, false, true, false, false, false, false, true,
    true, false, false, false, false, false, true, true, true, false, false,
    true, false, true, false, false, true, true, false, false, false, false,
    true, false, true, false, true, false, false, true, false, false, false,
    false, false, true, true, true, false, false, true, false, true, true,
    true, false, false, false, false, false, true, false, false, true, false,
    false, true, true, false, false, false, true, false, false, true, false,
    false, false, true, false, false, false, true, true, true, true, false,
    false, false, true, true, true, true, false, true, false, true, false,
    true, false, false, true, true, true, false, false, false, true, true,
    true, false, true, true, true, false, false, false, false, false, true,
    false, false, true, false, false, true, false, false, true, true, false,
    true, false, true, true, false, true, true, false, true, true, true, true,
    false, false, true, false, true, true, false, true, false, true, true,
    true, true, true, false, false, true, false, true, false, false, true,
    true, false, true, true, true, false, true, true, true, false, false,
    false, false, false, true, false, true, false, false, true, true, true,
    true, false, false, true, false, false, false, false, false, true, true,
    false, false, true, false, false, false, false, false, false, false, true,
    false, true, true, true, false, false, true, false, false, false, true,
    false, true, false, true, false, true, true, false, false, false, true,
    false, false, true, false, false, true, false, true, true, false, true,
    false, true, true, true, false, true, false, true, true, true, false,
    true, false, true, true, false, true, false, false, true, false, false,
    false, true, false, true, false, true, true, false, false, false, false,
    true, false, false, false, true, false, false, true, false, false, false,
    true, true, false, false, true, false, false, false, false, false, false,
    true, true, false, false, false, false, true, true, false, false, false,
    true, false, false, false, true, false, false, false, false, false, true,
    true, false, false, false, false, false, false, false, false, true, false,
    false, false, true, true, false, true, true, true, true, false, true,
    false, false, true, true, true, true, true, false, true, false, false,
    true, true, true, true, false, true, false, true, false, false, true,
    false, false, false, false, true, false, false, true, false, false, true,
    true, false, false, true, true, false, true, false, false, true, false,
    true, false, true, false, false, false, false, false, true, true, false,
    true, true, false, true, false, true, false, false, false, true, true,
    true, false, false, true, false, true, true, false, false, true, true,
    true, false, true, false, false, false, true, false, false, true, true,
    false, true, false, false, false, true, false, true, false, true, false,
    false, false, false, false, true, true, true, true, true, false, true,
    false, false, false, true, true, false, true, true, false, false, true,
    true, true, false, true, true, true, false, false, false, false, false,
    true, true, false, false, false, false, false, true, true, false, true,
    true, true, false, true, false, true, false, true, false, true, true,
    false, true, false, false, true, true, false, false, true, false, true,
    true, false, false, true, false, false, false, true, false, false, false,
    false, true, true, false, false, false, false, true, true, true, true,
    true, true, true, true, false, false, false, true, true, false, false,
    true, true, true, true, false, false, false, false, false, true, true,
    false, true, true, true, true, true, true, false, false, true, true,
    false, true, true, true, true, true, false, false, true, false, true,
    true, false, false, true, false, true, false, true, true, false, true,
    false, false, false, true, true, false, false, false, true, false, true,
    true, true, false, true, true, false, false, false, true, true, false,
    false, true, false, false, false, true, true, true, true, false, true,
    false, false, false, false, false, true, true, false, false, false, true,
    true, true, true, true, true, false, false, true, true, true, false, true,
    true, true, false, false, false, false, false, false, true, false, false,
    true, false, true, false, true, false, false, true, false, false, true,
    true, false, false, false, false, false, true, false, true, false, true,
    true, false, true, false, true, false, true, false, false, false, true,
    false, true, true, false, false, false, true, false, false, true, false,
    true, false, true, true, false, false, true, false, false, true, true,
    false, false, false, false, false, false, true, true, true, true, true,
    true, true, true, true, false, true, true, false, true, true, false, true,
    true, false, false, false, true, false, true, false, false, true, true,
    true, false, false, true, true, true, true, true, false, false, false,
    true, false, false, true, true, false, true, false, false, false, true,
    true, false, false, true, true, false, true, true, false, false, true,
    true, false, false, true, true, false, true, true, false, true, true,
    false, true, true, true, true, true, true, false, false, true, false,
    false, true, true, true, true, true, true, true, false, false, false,
    false, true, true, false, false, true, false, false, true, true, true,
    false, true, true, true, false, true, false, true, true, false, false,
    false, false, false, true, true, true, true, true, true, false, true,
    true, false, false, true, false, true, false, true, false, true, true,
    false, true, false, false, true, false, true, true, false, true, false,
    true, false, false, true, true, false, true, true, true, false, false,
    false, false, false, false, false, false, false, false, false, false,
    false, false, true, true, false, false, false, true, true, false, false,
    true, true, false, false, true, true, true, false, true, true, true, true,
    true, false, false, true, true, false, false, false, true, false, false,
    true, true, false, false, false, false, false, false, false, false, false,
    true, false]);
